(declare-fun temp3208_2 () (_ BitVec 64))
(declare-fun temp3208_1 () (_ BitVec 64))
(declare-fun temp3208_3 () (_ BitVec 64))
(declare-fun var460169 () (_ BitVec 64))
(declare-fun temp3208_4 () (_ BitVec 64))
(declare-fun var460170 () (_ BitVec 64))
(declare-fun temp3208_5 () (_ BitVec 64))
(declare-fun var984886 () (_ BitVec 64))
(declare-fun var1183964 () (_ BitVec 64))
(declare-fun temp3208_6 () (_ BitVec 64))
(declare-fun temp3208_7 () (_ BitVec 64))
(declare-fun var460297 () (_ BitVec 64))
(declare-fun k!0 () Bool)
(declare-fun ARGNAME_n_NAMEEND () (_ BitVec 64))
(declare-fun temp3208_8 () (_ BitVec 64))
(declare-fun ARGNAME_input_NAMEEND_DIM () (_ BitVec 64))
(declare-fun var1640427 () (_ BitVec 64))
(declare-fun temp3208_10 () (_ BitVec 64))
(declare-fun temp3208_9 () (_ BitVec 64))
(declare-fun var1706871 () (_ BitVec 64))
(declare-fun temp3208_11 () (_ BitVec 64))
(declare-fun var1773320 () (_ BitVec 64))
(declare-fun var1838865 () (_ BitVec 64))
(declare-fun temp3208_13 () (_ BitVec 64))
(declare-fun temp3208_12 () (_ BitVec 64))
(declare-fun temp3208_14 () (_ BitVec 64))
(declare-fun var2035447 () (_ BitVec 64))
(declare-fun temp3208_15 () (_ BitVec 64))
(declare-fun var1640488 () (_ BitVec 64))
(declare-fun var1640530 () (_ BitVec 64))
(declare-fun temp3208_17 () (_ BitVec 64))
(declare-fun temp3208_16 () (_ BitVec 64))
(declare-fun temp3208_18 () (_ BitVec 64))
(declare-fun var2493432 () (_ BitVec 64))
(declare-fun temp3208_19 () (_ BitVec 64))
(declare-fun var2493470 () (_ BitVec 64))
(declare-fun temp3208_20 () (_ BitVec 64))
(declare-fun var1640475 () (_ BitVec 64))
(declare-fun var1640474 () (_ BitVec 64))
(declare-fun temp3208_21 () (_ BitVec 64))
(declare-fun var1640479 () (_ BitVec 64))
(declare-fun temp3208_22 () (_ BitVec 64))
(declare-fun var1640481 () (_ BitVec 64))
(declare-fun temp3208_23 () (_ BitVec 64))
(declare-fun var3672270 () (_ BitVec 64))
(declare-fun temp3208_24 () (_ BitVec 64))
(declare-fun var3672347 () (_ BitVec 64))
(declare-fun var3672268 () (_ BitVec 64))
(declare-fun var460364 () (_ BitVec 64))
(declare-fun var460387 () (_ BitVec 64))
(declare-fun temp3208_25 () (_ BitVec 64))
(assert (= temp3208_2 #x0000000000000000))
(assert (= temp3208_1 temp3208_2))
(assert (= temp3208_3 #x0000000000000000))
(assert (= var460169 temp3208_3))
(assert (= temp3208_4 #x0000000000000001))
(assert (= var460170 temp3208_4))
(assert (= temp3208_5 #x0000000000000000))
(assert (= var984886 temp3208_5))
(assert (= var1183964 var984886))
(assert (= temp3208_6 #x0000000000000001))
(assert (= var460297
   (ite (bvslt ARGNAME_n_NAMEEND temp3208_6)
        #x0000000000000001
        #x0000000000000000)))
(assert (= temp3208_7 #x0000000000000000))
(assert (= var460297 temp3208_7))
(assert (= temp3208_8 #x0000000000000001))
(assert (= var1640427 (bvshl ARGNAME_input_NAMEEND_DIM temp3208_8)))
(assert (= temp3208_10 #x0000000000000000))
(assert (= temp3208_9 temp3208_10))
(assert (= var1706871 var1640427))
(assert (= temp3208_11 #x0000000000000005))
(assert (= var1773320 temp3208_11))
(assert (= var1838865 var1706871))
(assert (= temp3208_13 #x0000000000000000))
(assert (= temp3208_12 temp3208_13))
(assert (= temp3208_14 #x0000000000000000))
(assert (= var2035447 temp3208_14))
(assert (= temp3208_15 #x0000000000000000))
(assert (= var1640488 temp3208_15))
(assert (= var1640530 var1640488))
(assert (= temp3208_17 #x0000000000000000))
(assert (= temp3208_16 temp3208_17))
(assert (= temp3208_18 #x0000000000000001))
(assert (= var2493432 temp3208_18))
(assert (= temp3208_19 #x0000000000000000))
(assert (= var2493470 temp3208_19))
(assert (= temp3208_20 #x0000000000000000))
(assert (= var2493470 temp3208_20))
(assert (= var1640475 var1640530))
(assert (= var1640474 var1640475))
(assert (= temp3208_21 #x0000000000000001))
(assert (= var1640479 (bvand var1640474 temp3208_21)))
(assert (= temp3208_22 #x0000000000000000))
(assert (= var1640481
   (ite (= var1640479 temp3208_22) #x0000000000000001 #x0000000000000000)))
(assert (= temp3208_23 #x0000000000000001))
(assert (= var1640481 temp3208_23))
(assert (= var3672270 var460169))
(assert (= temp3208_24 #x0000000000000001))
(assert (= var3672347 temp3208_24))
(assert (= var3672268 var3672347))
(assert (= var460364 var3672268))
(assert (= var460387 var460364))
(assert (= temp3208_25 #x0000000000000000))
(assert (= var460169 temp3208_25))
(model-add temp3208_2 () (_ BitVec 64) #x0000000000000000)
(model-add temp3208_1 () (_ BitVec 64) #x0000000000000000)
(model-add temp3208_3 () (_ BitVec 64) #x0000000000000000)
(model-add var460169 () (_ BitVec 64) #x0000000000000000)
(model-add temp3208_4 () (_ BitVec 64) #x0000000000000001)
(model-add var460170 () (_ BitVec 64) #x0000000000000001)
(model-add temp3208_5 () (_ BitVec 64) #x0000000000000000)
(model-add var984886 () (_ BitVec 64) #x0000000000000000)
(model-add var1183964 () (_ BitVec 64) #x0000000000000000)
(model-add temp3208_6 () (_ BitVec 64) #x0000000000000001)
(model-add temp3208_7 () (_ BitVec 64) #x0000000000000000)
(model-add var460297 () (_ BitVec 64) #x0000000000000000)
(model-del k!0)
(model-add ARGNAME_n_NAMEEND
           ()
           (_ BitVec 64)
           (ite (or k!0 (= #x0000000000000001 #x8000000000000000))
                #x0000000000000001
                (bvsub #x0000000000000001 #x0000000000000001)))




